(set-logic QF_SLIA)
(set-option :produce-models true)
(declare-const X String)
; [\+]?[\s]?(\d(\-|\s)?)?(\(\d{3}\)\s?|\d{3}\-?)\d{3}(-|\s-\s)?\d{4}(\s(ex|ext)\s?\d+)?
(assert (str.in_re X (re.++ (re.opt (str.to_re "+")) (re.opt (re.union (str.to_re " ") (str.to_re "\u{09}") (str.to_re "\u{0a}") (str.to_re "\u{0c}") (str.to_re "\u{0d}"))) (re.opt (re.++ (re.range "0" "9") (re.opt (re.union (str.to_re "-") (str.to_re " ") (str.to_re "\u{09}") (str.to_re "\u{0a}") (str.to_re "\u{0c}") (str.to_re "\u{0d}"))))) (re.union (re.++ (str.to_re "(") ((_ re.loop 3 3) (re.range "0" "9")) (str.to_re ")") (re.opt (re.union (str.to_re " ") (str.to_re "\u{09}") (str.to_re "\u{0a}") (str.to_re "\u{0c}") (str.to_re "\u{0d}")))) (re.++ ((_ re.loop 3 3) (re.range "0" "9")) (re.opt (str.to_re "-")))) ((_ re.loop 3 3) (re.range "0" "9")) (re.opt (re.union (str.to_re "-") (re.++ (re.union (str.to_re " ") (str.to_re "\u{09}") (str.to_re "\u{0a}") (str.to_re "\u{0c}") (str.to_re "\u{0d}")) (str.to_re "-") (re.union (str.to_re " ") (str.to_re "\u{09}") (str.to_re "\u{0a}") (str.to_re "\u{0c}") (str.to_re "\u{0d}"))))) ((_ re.loop 4 4) (re.range "0" "9")) (re.opt (re.++ (re.union (str.to_re " ") (str.to_re "\u{09}") (str.to_re "\u{0a}") (str.to_re "\u{0c}") (str.to_re "\u{0d}")) (str.to_re "ext") (re.opt (re.union (str.to_re " ") (str.to_re "\u{09}") (str.to_re "\u{0a}") (str.to_re "\u{0c}") (str.to_re "\u{0d}"))) (re.+ (re.range "0" "9")))) (str.to_re "\u{0a}"))))
; ^http\://www.[a-zA-Z0-9\-\.]+\.[a-zA-Z]{2,3}/$
(assert (str.in_re X (re.++ (str.to_re "http://www") re.allchar (re.+ (re.union (re.range "a" "z") (re.range "A" "Z") (re.range "0" "9") (str.to_re "-") (str.to_re "."))) (str.to_re ".") ((_ re.loop 2 3) (re.union (re.range "a" "z") (re.range "A" "Z"))) (str.to_re "/\u{0a}"))))
; Send=\s+User-Agent\x3A\d+Host\x3A\x2Fproducts\x2Fspyblocs\x2Fbacktrust\x2Ecomv\x2ELoginHost\u{3a}
(assert (not (str.in_re X (re.++ (str.to_re "Send=") (re.+ (re.union (str.to_re " ") (str.to_re "\u{09}") (str.to_re "\u{0a}") (str.to_re "\u{0c}") (str.to_re "\u{0d}"))) (str.to_re "User-Agent:") (re.+ (re.range "0" "9")) (str.to_re "Host:/products/spyblocs/\u{13}backtrust.comv.LoginHost:\u{0a}")))))
(check-sat)
